(set-info :smt-lib-version 2.6)
(set-logic QF_LIA)
(set-info :category "industrial")
(set-info :status sat)
(declare-fun x0 () Int)
(declare-fun x1 () Int)
(declare-fun x10 () Int)
(declare-fun x11 () Int)
(declare-fun x12 () Int)
(declare-fun x13 () Int)
(declare-fun x14 () Int)
(declare-fun x15 () Int)
(declare-fun x16 () Int)
(declare-fun x17 () Int)
(declare-fun x18 () Int)
(declare-fun x19 () Int)
(declare-fun x2 () Int)
(declare-fun x20 () Int)
(declare-fun x21 () Int)
(declare-fun x22 () Int)
(declare-fun x23 () Int)
(declare-fun x24 () Int)
(declare-fun x3 () Int)
(declare-fun x4 () Int)
(declare-fun x5 () Int)
(declare-fun x6 () Int)
(declare-fun x7 () Int)
(declare-fun x8 () Int)
(declare-fun x9 () Int)
(assert (let ((?v_0 (* 0 x1)) (?v_2 (* 0 x13)) (?v_10 (* 0 x15)) (?v_37 (* 2 x14)) (?v_3 (* 0 x17)) (?v_6 (* 0 x19)) (?v_11 (* 1 x21)) (?v_52 (* 0 x22)) (?v_4 (* 0 x23)) (?v_8 (* 0 x6)) (?v_29 (* 1 x24)) (?v_25 (* 0 x14)) (?v_64 (* 0 x16)) (?v_20 (* 0 x21)) (?v_7 (* 0 x4)) (?v_36 (* 1 x6)) (?v_9 (* 0 x7)) (?v_22 (* 0 x8)) (?v_15 (* 1 x19)) (?v_12 (* 0 x24)) (?v_59 (* 1 x9)) (?v_13 (* 1 x0)) (?v_39 (* 0 x11)) (?v_26 (* 1 x16)) (?v_28 (* 0 x9)) (?v_16 (* 0 x0)) (?v_14 (* 0 x10)) (?v_18 (* 1 x18)) (?v_50 (* 1 x2)) (?v_82 (* 1 x20)) (?v_21 (* 0 x3)) (?v_53 (* 1 x4)) (?v_23 (* 1 x7)) (?v_30 (* 1 x8))) (let ((?v_77 (+ ?v_23 ?v_30)) (?v_17 (* 1 x11)) (?v_19 (* 0 x2)) (?v_32 (* 0 x5)) (?v_33 (* 2 x24)) (?v_68 (* 1 x15)) (?v_31 (* 0 x20)) (?v_43 (* 1 x5)) (?v_54 (* 1 x3))) (let ((?v_74 (+ ?v_54 ?v_30)) (?v_55 (* 0 x18)) (?v_46 (* 1 x23)) (?v_73 (* 1 x13)) (?v_49 (* 1 x1)) (?v_62 (* 1 x10)) (?v_58 (* 1 x17)) (?v_80 (* 2 x4)) (?v_71 (* 1 x12)) (?v_67 (* 0 x12)) (?v_81 (+ ?v_23 ?v_59)) (?v_75 (* 1 x14)) (?v_72 (* 2 x12)) (?v_85 (* 2 x11)) (?v_78 (* 1 x22)) (?v_5 (* (- 1) x10)) (?v_1 (* (- 1) x12)) (?v_35 (* (- 1) x11)) (?v_41 (* (- 1) x2)) (?v_56 (* (- 1) x21)) (?v_51 (* (- 1) x24)) (?v_48 (* (- 1) x9)) (?v_27 (* (- 1) x5)) (?v_63 (* (- 1) x18)) (?v_66 (* (- 1) x4)) (?v_42 (* (- 1) x6)) (?v_24 (* (- 1) x13)) (?v_44 (* (- 1) x14)) (?v_40 (* (- 1) x16)) (?v_57 (* (- 1) x23)) (?v_45 (* (- 1) x22)) (?v_34 (* (- 1) x0)) (?v_61 (* (- 2) x14)) (?v_79 (* (- 1) x15)) (?v_38 (* (- 1) x17)) (?v_47 (* (- 1) x7)) (?v_70 (* (- 1) x3)) (?v_76 (* (- 1) x1)) (?v_65 (* (- 1) x19)) (?v_60 (* (- 1) x8)) (?v_69 (* (- 1) x20)) (?v_83 (* (- 2) x16)) (?v_84 (* (- 2) x17))) (and (<= (+ ?v_0 (+ (* (- 2) x7) (+ ?v_5 (+ ?v_1 (+ ?v_2 (+ ?v_10 (+ ?v_37 (+ ?v_3 (+ ?v_6 (+ ?v_11 (+ ?v_52 (+ ?v_4 (+ ?v_8 ?v_29))))))))))))) 0) (<= (+ ?v_0 (+ ?v_35 (+ ?v_1 (+ ?v_2 (+ ?v_25 (+ ?v_64 (+ ?v_3 (+ ?v_20 (+ ?v_4 (+ ?v_7 (+ ?v_36 (+ ?v_9 (+ ?v_22 (+ ?v_15 (+ ?v_12 ?v_59))))))))))))))) (- 1)) (<= (+ ?v_13 (+ ?v_5 (+ ?v_39 (+ ?v_1 (+ ?v_26 (+ ?v_41 (+ ?v_56 (+ ?v_3 (+ ?v_6 (+ ?v_51 (+ ?v_7 (+ ?v_8 (+ ?v_9 ?v_28))))))))))))) 0) (<= (+ ?v_16 (+ ?v_14 (+ ?v_1 (+ ?v_48 (+ ?v_10 (+ ?v_18 (+ ?v_27 (+ ?v_6 (+ ?v_4 (+ ?v_50 (+ ?v_82 (+ ?v_11 (+ ?v_12 (+ ?v_21 (+ ?v_53 ?v_77))))))))))))))) 0) (<= (+ ?v_13 (+ ?v_14 (+ ?v_17 (+ ?v_1 (+ ?v_63 (+ ?v_66 (+ ?v_42 (+ ?v_3 (+ ?v_19 (+ ?v_4 (+ ?v_32 (+ ?v_15 (+ (* 2 x22) ?v_33))))))))))))) 0) (<= (+ ?v_16 (+ ?v_17 (+ ?v_1 (+ ?v_24 (+ ?v_44 (+ ?v_68 (+ ?v_40 (+ ?v_31 (+ ?v_18 (+ ?v_57 (+ ?v_19 (+ ?v_20 (+ ?v_21 (+ ?v_7 (+ ?v_22 (+ ?v_15 (+ ?v_12 (+ ?v_43 ?v_23)))))))))))))))))) 0) (<= (+ ?v_0 (+ ?v_1 (+ ?v_24 (+ ?v_25 (+ ?v_26 (+ ?v_3 (+ ?v_6 (+ ?v_20 (+ ?v_45 (+ ?v_4 (+ ?v_27 (+ ?v_28 (+ ?v_29 ?v_74))))))))))))) 1) (<= (+ ?v_34 (+ ?v_0 (+ ?v_61 (+ ?v_1 (+ ?v_79 (+ ?v_38 (+ ?v_55 (+ ?v_31 (+ ?v_32 (+ ?v_8 (+ ?v_15 (+ ?v_46 ?v_33)))))))))))) 0) (<= (+ ?v_34 (+ ?v_35 (+ (* (- 2) x21) (+ ?v_14 (+ ?v_1 (+ ?v_10 (+ ?v_21 (+ ?v_36 (+ ?v_28 (+ ?v_37 (+ (* 2 x16) (+ ?v_38 (+ ?v_47 (+ ?v_6 ?v_73)))))))))))))) 0) (<= (+ ?v_16 (+ ?v_49 (+ ?v_39 (+ ?v_1 (+ ?v_40 (+ ?v_25 (+ ?v_41 (+ ?v_70 (+ ?v_42 (+ ?v_6 (+ ?v_31 (+ ?v_4 (+ ?v_28 ?v_43))))))))))))) 0) (<= (+ ?v_0 (+ ?v_35 (+ ?v_14 (+ ?v_1 (+ ?v_44 (+ ?v_10 (+ ?v_31 (+ ?v_18 (+ ?v_6 (+ ?v_45 (+ ?v_46 (+ ?v_32 (+ ?v_8 (+ ?v_47 (+ ?v_48 ?v_29))))))))))))))) 0) (<= (+ ?v_49 (+ ?v_62 (+ ?v_17 (+ ?v_1 (+ ?v_44 (+ ?v_10 (+ ?v_26 (+ ?v_18 (+ ?v_6 (+ ?v_58 (+ ?v_50 (+ ?v_51 (+ ?v_52 (+ ?v_53 (+ ?v_8 (+ ?v_54 (+ ?v_9 (+ ?v_28 ?v_30)))))))))))))))))) 0) (<= (+ ?v_76 (+ ?v_13 (+ ?v_24 (+ ?v_55 (+ ?v_65 (+ ?v_56 (+ ?v_57 (+ ?v_42 (+ ?v_54 (+ ?v_80 (+ ?v_60 (+ ?v_19 (+ ?v_58 (+ ?v_52 ?v_59)))))))))))))) (- 1)) (<= (+ ?v_13 (+ ?v_35 (+ ?v_24 (+ ?v_40 (+ ?v_69 (+ ?v_42 (+ ?v_25 (+ ?v_60 (+ ?v_3 (+ ?v_55 (+ ?v_4 (+ ?v_7 (+ ?v_54 (+ ?v_32 (+ ?v_9 ?v_71))))))))))))))) 0) (<= (+ ?v_39 (+ ?v_61 (+ ?v_62 (+ ?v_38 (+ ?v_63 (+ ?v_56 (+ ?v_45 (+ ?v_42 (+ ?v_67 (+ ?v_10 (+ ?v_64 (+ ?v_31 (+ ?v_12 (+ ?v_21 ?v_81)))))))))))))) 1) (<= (+ ?v_0 (+ ?v_39 (+ ?v_65 (+ ?v_45 (+ ?v_66 (+ ?v_67 (+ ?v_68 (+ ?v_55 (+ ?v_21 (+ ?v_26 (+ ?v_36 (+ ?v_37 (+ ?v_3 (+ ?v_12 (+ ?v_32 (* 3 x8)))))))))))))))) (- 1)) (<= (+ ?v_16 (+ ?v_0 (+ ?v_35 (+ ?v_63 (+ ?v_41 (+ ?v_69 (+ ?v_45 (+ ?v_66 (+ ?v_27 (+ ?v_67 (+ ?v_26 (+ ?v_46 (+ ?v_12 (+ ?v_21 (+ ?v_22 ?v_28))))))))))))))) 0) (<= (+ ?v_16 (+ ?v_49 (+ (* (- 2) x3) (+ ?v_5 (+ ?v_57 (+ ?v_48 (+ ?v_2 (+ ?v_10 (+ ?v_55 (+ ?v_8 (+ ?v_75 (+ ?v_26 (+ ?v_19 (+ ?v_58 (+ ?v_11 (+ ?v_45 (+ ?v_12 (+ ?v_30 ?v_72)))))))))))))))))) (- 1)) (<= (+ ?v_85 (+ (* (- 2) x20) (+ ?v_44 (+ ?v_14 (+ ?v_2 (+ ?v_19 (+ ?v_45 (+ ?v_70 (+ ?v_4 (+ ?v_47 (+ ?v_12 (+ ?v_7 (+ ?v_32 (+ ?v_22 ?v_71)))))))))))))) (- 1)) (<= (+ ?v_34 (+ ?v_0 (+ ?v_39 (+ ?v_83 (+ ?v_44 (+ ?v_10 (+ ?v_55 (+ ?v_4 (+ ?v_28 (+ ?v_62 (+ ?v_58 (+ ?v_51 (+ ?v_22 ?v_72))))))))))))) 0) (<= (+ ?v_0 (+ ?v_14 (+ ?v_17 (+ ?v_25 (+ ?v_68 (+ ?v_38 (+ ?v_65 (+ ?v_19 (+ ?v_31 (+ ?v_46 (+ ?v_51 (+ ?v_66 (+ ?v_32 (+ ?v_8 (+ ?v_73 ?v_74))))))))))))))) (- 1)) (<= (+ ?v_65 (+ ?v_42 (+ ?v_48 (+ ?v_67 (+ ?v_2 (+ ?v_10 (+ ?v_64 (+ ?v_55 (+ ?v_75 (+ ?v_3 (+ ?v_19 (+ ?v_31 (+ ?v_20 (+ ?v_4 (+ ?v_21 (+ ?v_32 (+ ?v_29 ?v_23))))))))))))))))) 0) (<= (+ ?v_0 (+ ?v_40 (+ ?v_69 (+ ?v_67 (+ ?v_2 (+ (* 2 x15) (+ ?v_6 (+ ?v_4 (+ ?v_54 (+ ?v_32 (+ ?v_8 (+ ?v_9 (+ ?v_58 (+ ?v_50 (+ ?v_29 ?v_30))))))))))))))) 0) (<= (+ ?v_76 (+ ?v_16 (+ ?v_39 (+ ?v_40 (+ ?v_63 (+ (* (- 2) x8) (+ ?v_67 (+ ?v_2 (+ ?v_68 (+ ?v_3 (+ ?v_6 (+ ?v_31 (+ ?v_4 (+ ?v_32 ?v_29)))))))))))))) 0) (<= (+ ?v_0 (+ ?v_13 (+ (* (- 2) x6) (+ ?v_63 (+ ?v_56 (+ ?v_66 (+ ?v_47 (+ ?v_14 (+ ?v_67 (+ ?v_2 (+ ?v_3 (+ ?v_50 (+ ?v_12 (+ ?v_30 ?v_59)))))))))))))) 1) (<= (+ ?v_49 (+ ?v_39 (+ ?v_38 (+ ?v_65 (+ ?v_67 (+ ?v_20 (+ ?v_50 (+ ?v_52 (+ ?v_7 (+ ?v_46 (+ ?v_29 (+ ?v_36 ?v_59)))))))))))) (- 1)) (<= (+ ?v_13 (+ ?v_70 (+ ?v_62 (+ ?v_17 (+ ?v_67 (+ ?v_26 (+ ?v_3 (+ ?v_31 (+ ?v_18 (+ ?v_20 (+ ?v_4 (+ ?v_28 (+ (* 2 x19) (+ ?v_78 (+ ?v_29 ?v_77))))))))))))))) 1) (<= (+ ?v_14 (+ (* (- 3) x13) (+ ?v_44 (+ ?v_38 (+ ?v_47 (+ ?v_67 (+ ?v_64 (+ ?v_18 (+ ?v_19 (+ ?v_20 (+ ?v_15 (+ ?v_46 (+ ?v_12 (+ ?v_32 (+ ?v_22 ?v_78))))))))))))))) 1) (<= (+ ?v_0 (+ ?v_35 (+ ?v_79 (+ ?v_65 (+ ?v_69 (+ ?v_51 (+ ?v_67 (+ ?v_64 (+ ?v_75 (+ ?v_3 (+ ?v_19 (+ ?v_20 (+ ?v_52 (+ ?v_21 (+ ?v_80 (+ ?v_32 (+ ?v_22 ?v_81))))))))))))))))) 0) (<= (+ (* 2 x10) (+ ?v_51 (+ ?v_47 (+ ?v_60 (+ ?v_2 (+ ?v_25 (+ ?v_31 (+ ?v_4 (+ ?v_7 (+ ?v_71 (+ ?v_59 (* 3 x2)))))))))))) 0) (<= (+ ?v_17 (+ ?v_2 (+ ?v_25 (+ ?v_68 (+ ?v_55 (+ (* 3 x16) (+ ?v_6 (+ ?v_20 (+ ?v_8 (+ ?v_22 (+ ?v_28 (+ ?v_58 (+ ?v_82 (+ ?v_12 ?v_54)))))))))))))) 0) (<= (+ ?v_16 (+ ?v_17 (+ ?v_83 (+ ?v_69 (+ ?v_42 (+ ?v_48 (+ ?v_14 (+ ?v_2 (+ ?v_55 (+ ?v_19 (+ ?v_20 (+ ?v_32 (+ ?v_58 (+ ?v_12 ?v_53)))))))))))))) 0) (<= (+ ?v_76 (+ ?v_16 (+ ?v_35 (+ ?v_84 (+ ?v_41 (+ ?v_56 (+ ?v_42 (+ ?v_60 (+ ?v_2 (+ ?v_25 (+ ?v_10 (+ ?v_31 (+ ?v_18 (+ ?v_15 (+ ?v_12 (+ ?v_21 (+ ?v_7 ?v_23))))))))))))))))) 1) (<= (+ ?v_44 (+ ?v_2 (+ ?v_68 (+ ?v_64 (+ ?v_3 (+ ?v_55 (+ ?v_50 (+ ?v_45 (+ ?v_46 (+ ?v_51 (+ ?v_54 (+ ?v_27 (+ ?v_8 (+ ?v_47 ?v_30)))))))))))))) 1) (<= (+ ?v_34 (+ ?v_0 (+ ?v_35 (+ ?v_70 (+ ?v_62 (+ ?v_68 (+ ?v_26 (+ ?v_3 (+ ?v_31 (+ ?v_20 (+ ?v_50 (+ ?v_51 (+ ?v_36 (* 2 x7)))))))))))))) (- 1)) (<= (+ ?v_49 (+ ?v_35 (+ ?v_62 (+ ?v_84 (+ (* (- 2) x23) (+ ?v_56 (+ ?v_27 (+ ?v_48 (+ ?v_2 (+ ?v_10 (+ ?v_55 (+ ?v_26 (+ ?v_15 (+ ?v_52 (+ ?v_9 ?v_72))))))))))))))) 0) (<= (+ ?v_5 (+ ?v_35 (+ ?v_79 (+ ?v_55 (+ ?v_82 (+ ?v_57 (+ ?v_20 (+ ?v_12 (+ ?v_21 (+ ?v_7 (+ ?v_32 (+ ?v_22 (+ ?v_71 (+ ?v_73 (+ ?v_58 (+ ?v_15 ?v_59)))))))))))))))) (- 1)) (<= (+ ?v_76 (+ ?v_14 (+ ?v_25 (+ ?v_68 (+ (* 2 x18) (+ ?v_6 (+ ?v_19 (+ ?v_4 (+ ?v_51 (+ ?v_21 (+ ?v_7 (+ ?v_32 (+ ?v_28 (+ ?v_73 (+ ?v_52 ?v_77))))))))))))))) 1) (<= (+ ?v_34 (+ ?v_49 (+ ?v_79 (+ ?v_40 (+ ?v_42 (+ ?v_25 (+ ?v_38 (+ ?v_55 (+ ?v_20 (+ ?v_9 (+ ?v_73 (+ ?v_46 (+ ?v_29 (+ ?v_54 ?v_59)))))))))))))) 0) (<= (+ ?v_76 (+ ?v_44 (+ ?v_41 (+ ?v_69 (+ ?v_70 (+ ?v_66 (+ ?v_14 (+ ?v_85 (+ ?v_68 (+ ?v_55 (+ ?v_32 (+ ?v_22 (+ ?v_58 (+ (* (- 2) x24) ?v_23)))))))))))))) (- 1)))))))
(check-sat)
(exit)
